NAME : XML100_2133_07
DIMENSION : 101
NB_CLUSTERS : 32
CLUSTERING_ALG : DBSCAN
CLUSTERING_PARAMS : eps(37), minSamples(3)
CLUSTERS
1 0
2 26 47 94
3 25 37 57
4 9 21 33 51 58 75 77 85 87
5 10 13 91
6 22 29 46
7 54 65
8 44 66 81 82 90
9 17 38
10 18 59
11 1 96
12 3 16 92
13 2 64
14 23 48 100
15 40 84 86
16 42 61 76
17 49 63 88 99
18 8 11 32
19 7 12 28 73
20 19 27 30 56 60 68
21 6 15 39 95
22 31 55 71
23 5 45 69 72 83 97
24 24 62
25 14 70 79 98
26 78 89
27 35 52 80
28 43 74
29 41 53
30 20 93
31 36 67
32 4 34 50
EOF